DATASET = "thpack6";
INSTANCE = "024";

WIDTH = 233;
HEIGHT = 220;
LENGTH = 587;

NO_OF_SHAPES = 15;
size = [|
  113,80,29 |
  98,65,62 |
  60,59,46 |
  100,97,64 |
  99,88,23 |
  106,49,33 |
  78,54,30 |
  71,68,41 |
  83,80,35 |
  99,55,27 |
  91,51,43 |
  99,78,72 |
  102,88,37 |
  97,75,72 |
  83,63,27 |
|];

verticality = [|
  0,0,1 |
  1,1,1 |
  1,1,1 |
  1,1,1 |
  0,0,1 |
  0,1,1 |
  0,1,1 |
  1,1,1 |
  0,0,1 |
  0,0,1 |
  0,1,1 |
  1,1,1 |
  0,0,1 |
  1,1,1 |
  0,0,1 |
|];

box_count = [
  7,
  8,
  6,
  6,
  5,
  3,
  6,
  9,
  5,
  11,
  6,
  7,
  12,
  6,
  8,
];
